outputs/case_232.model.txt
control_environment_established = False
risk_assessment_performed = False
control_activities_implemented = False
information_communication_effective = False
monitoring_activities_performed = False
internal_control_system_executed = True
internal_control_system_established = True
internal_handling_system_executed = True
internal_operation_system_executed = True
internal_handling_system_established = True
internal_operation_system_established = True
internal_operation_executed = True
internal_control_executed = True
internal_handling_established = True
internal_operation_ok = True
internal_handling_ok = True
penalty = False
internal_control_established = True
internal_handling_executed = True
internal_operation_established = True
internal_control_comprehensive = False
internal_control_ok = True